# Complete bipartite graph K_{3,3}
# Nodes 0,1,2 = side A  |  Nodes 3,4,5 = side B
# Max cut = 9 (ALL edges are cut — trivially optimal)
# Optimal partition: A={0,1,2}, B={3,4,5}
6
0 3
0 4
0 5
1 3
1 4
1 5
2 3
2 4
2 5
