# 10-node circular graph
# Nodes: 0..10 arranged as a circle
# Edges: outer ring (0-1, 1-2, ..., 7-0) + Diagonal(0-5),(1-6),(2-7),(3-8) and (4-9)
# Max cut = 14, optimal partition: Set A: {0, 2, 4, 6, 8} Set B: {1, 3, 5, 7, 9}
10
0 1
1 2
2 3
3 4
4 5
5 6
6 7
7 8
8 9
9 0
0 5
1 6
2 7
3 8
4 9
