# 8-node circular graph: C_8 + 4 long diagonals
# Nodes: 0..7 arranged as a circle
# Edges: outer ring (0-1, 1-2, ..., 7-0) + diagonals (0-4, 1-5, 2-6, 3-7)
# Max cut = 10, optimal partition: A={0,2,5,7}  B={1,3,4,6}
8
0 1
1 2
2 3
3 4
4 5
5 6
6 7
7 0
0 4
1 5
2 6
3 7
